Route #1: 39 37 40 44 51 14 43 33 
Route #2: 53 6 15 7 46 28 8 10 18 19 
Route #3: 45 42 4 47 26 21 1 
Route #4: 52 41 24 29 25 
Route #5: 36 32 48 27 35 16 
Route #6: 13 49 2 11 55 20 31 30 54 34 3 
Route #7: 17 12 9 38 50 22 23 5 
cost 826.909
execution_time 16.726
